% Auto-generated by scripts/generate_dzn.py
% problem_type   = regex
% instance       = regex_36
% source_json    = instances_json/1_medium_blowup/regex_36.json
% blowup         = 3.35
% representation = DFA

mode = 0;

var_count = 21;
n_constraints = 2;
Q = 55;
S = 3;
q0 = [1, 1];
F = [{35, 36, 37, 38, 39, 40, 41, 42, 43, 44, 45, 46, 47, 48, 49, 50, 51, 52, 53, 54, 55}, {11}];
weights = [3, 5, 2, 5, 1, 1, 4, 7, 1, 2, 4, 6, 10, 6, 7, 4, 3, 5, 8, 5, 1];
d_dfa = array3d(1..2, 1..55, 1..3, [
  % k = 1
    1, 1, 2,
    1, 3, 2,
    4, 4, 5,
    6, 6, 7,
    6, 8, 7,
    9, 9, 10,
    9, 11, 10,
    12, 12, 13,
    14, 14, 15,
    14, 16, 15,
    17, 17, 18,
    19, 19, 20,
    19, 21, 20,
    22, 22, 23,
    22, 24, 23,
    25, 25, 26,
    27, 27, 28,
    27, 29, 28,
    30, 30, 31,
    30, 32, 31,
    33, 33, 34,
    35, 35, 36,
    35, 37, 36,
    38, 38, 39,
    40, 40, 41,
    40, 42, 41,
    43, 43, 44,
    43, 45, 44,
    46, 46, 47,
    48, 48, 49,
    48, 50, 49,
    51, 51, 52,
    53, 53, 54,
    53, 55, 54,
    1, 1, 2,
    1, 3, 2,
    4, 4, 5,
    6, 6, 7,
    6, 8, 7,
    9, 9, 10,
    9, 11, 10,
    12, 12, 13,
    14, 14, 15,
    14, 16, 15,
    17, 17, 18,
    19, 19, 20,
    19, 21, 20,
    22, 22, 23,
    22, 24, 23,
    25, 25, 26,
    27, 27, 28,
    27, 29, 28,
    30, 30, 31,
    30, 32, 31,
    33, 33, 34,

  % k = 2
    1, 2, 1,
    2, 3, 2,
    3, 4, 3,
    4, 5, 4,
    5, 6, 5,
    6, 7, 6,
    7, 8, 7,
    8, 9, 8,
    9, 10, 9,
    10, 11, 10,
    11, 12, 11,
    12, 12, 12,
    0, 0, 0,
    0, 0, 0,
    0, 0, 0,
    0, 0, 0,
    0, 0, 0,
    0, 0, 0,
    0, 0, 0,
    0, 0, 0,
    0, 0, 0,
    0, 0, 0,
    0, 0, 0,
    0, 0, 0,
    0, 0, 0,
    0, 0, 0,
    0, 0, 0,
    0, 0, 0,
    0, 0, 0,
    0, 0, 0,
    0, 0, 0,
    0, 0, 0,
    0, 0, 0,
    0, 0, 0,
    0, 0, 0,
    0, 0, 0,
    0, 0, 0,
    0, 0, 0,
    0, 0, 0,
    0, 0, 0,
    0, 0, 0,
    0, 0, 0,
    0, 0, 0,
    0, 0, 0,
    0, 0, 0,
    0, 0, 0,
    0, 0, 0,
    0, 0, 0,
    0, 0, 0,
    0, 0, 0,
    0, 0, 0,
    0, 0, 0,
    0, 0, 0,
    0, 0, 0,
    0, 0, 0
]);
d_nfa = array3d(1..2, 1..55, 1..3, [
  % k = 1
    {}, {}, {},
    {}, {}, {},
    {}, {}, {},
    {}, {}, {},
    {}, {}, {},
    {}, {}, {},
    {}, {}, {},
    {}, {}, {},
    {}, {}, {},
    {}, {}, {},
    {}, {}, {},
    {}, {}, {},
    {}, {}, {},
    {}, {}, {},
    {}, {}, {},
    {}, {}, {},
    {}, {}, {},
    {}, {}, {},
    {}, {}, {},
    {}, {}, {},
    {}, {}, {},
    {}, {}, {},
    {}, {}, {},
    {}, {}, {},
    {}, {}, {},
    {}, {}, {},
    {}, {}, {},
    {}, {}, {},
    {}, {}, {},
    {}, {}, {},
    {}, {}, {},
    {}, {}, {},
    {}, {}, {},
    {}, {}, {},
    {}, {}, {},
    {}, {}, {},
    {}, {}, {},
    {}, {}, {},
    {}, {}, {},
    {}, {}, {},
    {}, {}, {},
    {}, {}, {},
    {}, {}, {},
    {}, {}, {},
    {}, {}, {},
    {}, {}, {},
    {}, {}, {},
    {}, {}, {},
    {}, {}, {},
    {}, {}, {},
    {}, {}, {},
    {}, {}, {},
    {}, {}, {},
    {}, {}, {},
    {}, {}, {},

  % k = 2
    {}, {}, {},
    {}, {}, {},
    {}, {}, {},
    {}, {}, {},
    {}, {}, {},
    {}, {}, {},
    {}, {}, {},
    {}, {}, {},
    {}, {}, {},
    {}, {}, {},
    {}, {}, {},
    {}, {}, {},
    {}, {}, {},
    {}, {}, {},
    {}, {}, {},
    {}, {}, {},
    {}, {}, {},
    {}, {}, {},
    {}, {}, {},
    {}, {}, {},
    {}, {}, {},
    {}, {}, {},
    {}, {}, {},
    {}, {}, {},
    {}, {}, {},
    {}, {}, {},
    {}, {}, {},
    {}, {}, {},
    {}, {}, {},
    {}, {}, {},
    {}, {}, {},
    {}, {}, {},
    {}, {}, {},
    {}, {}, {},
    {}, {}, {},
    {}, {}, {},
    {}, {}, {},
    {}, {}, {},
    {}, {}, {},
    {}, {}, {},
    {}, {}, {},
    {}, {}, {},
    {}, {}, {},
    {}, {}, {},
    {}, {}, {},
    {}, {}, {},
    {}, {}, {},
    {}, {}, {},
    {}, {}, {},
    {}, {}, {},
    {}, {}, {},
    {}, {}, {},
    {}, {}, {},
    {}, {}, {},
    {}, {}, {}
]);
